
(set-option :produce-models true)
(declare-fun interL1020@1_5_5 () (_ BitVec 256))
(declare-fun L1020@1_5 () (_ BitVec 256))
(declare-fun certoraTmp_1 () (_ BitVec 256))
(declare-fun caller_0 () (_ BitVec 256))
(declare-fun certoraMaskedTmp_1 () (_ BitVec 256))
(declare-fun certoraMaskedTmp_2 () Bool)
(declare-fun certoraTmp_2 () Bool)
(declare-fun e.msg.sender_0 () (_ BitVec 256))
(declare-fun certoraTmp_3 () (_ BitVec 256))
(declare-fun callvalue_0 () (_ BitVec 256))
(declare-fun certoraTmp_4 () Bool)
(declare-fun e.msg.value_0 () (_ BitVec 256))
(declare-fun certoraTmp_5 () (_ BitVec 256))
(declare-fun address_0 () (_ BitVec 256))
(declare-fun certoraMaskedTmp_3 () (_ BitVec 256))
(declare-fun certoraMaskedTmp_4 () Bool)
(declare-fun certoraTmp_6 () Bool)
(declare-fun e.msg.address_0 () (_ BitVec 256))
(declare-fun certoraTmp_7 () (_ BitVec 256))
(declare-fun origin_0 () (_ BitVec 256))
(declare-fun certoraMaskedTmp_5 () (_ BitVec 256))
(declare-fun certoraMaskedTmp_6 () Bool)
(declare-fun certoraTmp_8 () Bool)
(declare-fun e.tx.origin_0 () (_ BitVec 256))
(declare-fun certoraTmp_9 () (_ BitVec 256))
(declare-fun blockNumber_0 () (_ BitVec 256))
(declare-fun certoraTmp_10 () Bool)
(declare-fun e.block.number_0 () (_ BitVec 256))
(declare-fun sizeCalldata_1 () (_ BitVec 256))
(declare-fun calldatasize_0 () (_ BitVec 256))
(declare-fun tmpSizeCalldataLimitCheck_1 () Bool)
(declare-fun lastStorage_1 () (Array (_ BitVec 256) (Array (_ BitVec 256) (_ BitVec 256))))
(declare-fun S_0 () (Array (_ BitVec 256) (Array (_ BitVec 256) (_ BitVec 256))))
(declare-fun certora_certoraAssumet1_1 () (_ BitVec 256))
(declare-fun f_0 () (_ BitVec 256))
(declare-fun certoraTPos_1 () Bool)
(declare-fun certoraAssume_1 () Bool)
(declare-fun certoraEqArgs_1 () Bool)
(declare-fun calldata@1_0 () (Array (_ BitVec 256) (_ BitVec 8)))
(declare-fun arg_0 () (Array (_ BitVec 256) (_ BitVec 8)))
(declare-fun lastHasThrown_2 () Bool)
(declare-fun certoraTmp_11 () (_ BitVec 256))
(declare-fun caller@1_0 () (_ BitVec 256))
(declare-fun certoraMaskedTmp_7 () (_ BitVec 256))
(declare-fun certoraMaskedTmp_8 () Bool)
(declare-fun certoraTmp_12 () Bool)
(declare-fun certoraTmp_13 () (_ BitVec 256))
(declare-fun callvalue@1_0 () (_ BitVec 256))
(declare-fun certoraTmp_14 () Bool)
(declare-fun certoraTmp_15 () (_ BitVec 256))
(declare-fun address@1_0 () (_ BitVec 256))
(declare-fun certoraMaskedTmp_9 () (_ BitVec 256))
(declare-fun certoraMaskedTmp_10 () Bool)
(declare-fun certoraTmp_16 () Bool)
(declare-fun certoraTmp_17 () (_ BitVec 256))
(declare-fun certoraMaskedTmp_11 () (_ BitVec 256))
(declare-fun certoraMaskedTmp_12 () Bool)
(declare-fun certoraTmp_18 () Bool)
(declare-fun certoraTmp_19 () (_ BitVec 256))
(declare-fun blockNumber@1_0 () (_ BitVec 256))
(declare-fun certoraTmp_20 () Bool)
(declare-fun sizeCalldata_2 () (_ BitVec 256))
(declare-fun calldatasize@1_0 () (_ BitVec 256))
(declare-fun tmpSizeCalldataLimitCheck_2 () Bool)
(declare-fun S_1 () (Array (_ BitVec 256) (Array (_ BitVec 256) (_ BitVec 256))))
(declare-fun certoraInput_1 () (_ BitVec 256))
(declare-fun certoraInput_2 () (_ BitVec 256))
(declare-fun certoraIsMethod_1 () Bool)
(declare-fun certoraFIsCandidate_1 () Bool)
(declare-fun thisAddressTmp_1 () (_ BitVec 256))
(declare-fun thisAddressTmpBool_1 () Bool)
(declare-fun origS_1 () (Array (_ BitVec 256) (Array (_ BitVec 256) (_ BitVec 256))))
(declare-fun tmp@1_1 () (_ BitVec 256))
(declare-fun maskedTmp@1_1 () (_ BitVec 256))
(declare-fun maskedTmp@1_2 () Bool)
(declare-fun tmp@1_2 () (_ BitVec 256))
(declare-fun maskedTmp@1_3 () (_ BitVec 256))
(declare-fun maskedTmp@1_4 () Bool)
(declare-fun M@1_1 () (Array (_ BitVec 256) (_ BitVec 256)))
(declare-fun M@1_0 () (Array (_ BitVec 256) (_ BitVec 256)))
(declare-fun L1022@1_1 () (_ BitVec 256))
(declare-fun L1020@1_1 () (_ BitVec 256))
(declare-fun L1021@1_1 () (_ BitVec 256))
(declare-fun L1020@1_2 () Bool)
(declare-fun L1020@1_3 () Bool)
(declare-fun S_2 () (Array (_ BitVec 256) (Array (_ BitVec 256) (_ BitVec 256))))
(declare-fun lastReverted_1 () Bool)
(declare-fun sizeCalldata@1_1 () (_ BitVec 256))
(declare-fun tmpSizeCalldataLimitCheck@1_1 () Bool)
(declare-fun boundaryCalldata@1_1 () Bool)
(declare-fun L1019@1_1 () (_ BitVec 256))
(declare-fun L1022@1_2 () (_ BitVec 256))
(declare-fun L1021@1_3 () (_ BitVec 256))
(declare-fun L1020@1_4 () (_ BitVec 256))
(declare-fun L1019@1_2 () (_ BitVec 256))
(declare-fun L1019@1_3 () Bool)
(declare-fun L1019@1_4 () Bool)
(declare-fun L1019@1_5 () Bool)
(declare-fun S_3 () (Array (_ BitVec 256) (Array (_ BitVec 256) (_ BitVec 256))))
(declare-fun lastHasThrown_3 () Bool)
(declare-fun lastReverted_3 () Bool)
(declare-fun L0@1_1 () (_ BitVec 256))
(declare-fun M@1_2 () (Array (_ BitVec 256) (_ BitVec 256)))
(declare-fun L1021@1_4 () (_ BitVec 256))
(declare-fun L1021@1_5 () (_ BitVec 256))
(declare-fun L1022@1_3 () (_ BitVec 256))
(declare-fun L1022@1_4 () (_ BitVec 256))
(declare-fun L1019@1_6 () (_ BitVec 256))
(declare-fun L1019@1_7 () (_ BitVec 256))
(declare-fun L1019@1_8 () (_ BitVec 256))
(declare-fun M@1_3 () (Array (_ BitVec 256) (_ BitVec 256)))
(declare-fun L1020@1_6 () (_ BitVec 256))
(declare-fun L0@1_2 () (_ BitVec 256))
(declare-fun L1021@1_9 () (_ BitVec 256))
(declare-fun L1022@1_6 () (_ BitVec 256))
(declare-fun retVal@1_1 () (_ BitVec 256))
(declare-fun lastReverted_4 () Bool)
(declare-fun certoraMemOffset_1 () (_ BitVec 256))
(declare-fun certora_certoraAssert_0t_1 () Bool)
(declare-fun lastHasThrown_4 () Bool)
(declare-fun certoraAssert_0_1 () Bool)
(declare-fun S_4 () (Array (_ BitVec 256) (Array (_ BitVec 256) (_ BitVec 256))))
(declare-fun M@1_4 () (Array (_ BitVec 256) (_ BitVec 256)))
(declare-fun L1022@1_7 () (_ BitVec 256))
(declare-fun L1020@1_7 () (_ BitVec 256))
(declare-fun L1021@1_10 () (_ BitVec 256))
(declare-fun lastReverted_5 () Bool)
(declare-fun sizeCalldata@1_2 () (_ BitVec 256))
(declare-fun sizeCalldata@1_0 () (_ BitVec 256))
(declare-fun tmpSizeCalldataLimitCheck@1_2 () Bool)
(declare-fun tmpSizeCalldataLimitCheck@1_0 () Bool)
(declare-fun boundaryCalldata@1_2 () Bool)
(declare-fun boundaryCalldata@1_0 () Bool)
(declare-fun L1019@1_9 () (_ BitVec 256))
(declare-fun L1019@1_0 () (_ BitVec 256))
(declare-fun L0@1_3 () (_ BitVec 256))
(declare-fun L0@1_0 () (_ BitVec 256))
(declare-fun retVal@1_2 () (_ BitVec 256))
(declare-fun retVal@1_0 () (_ BitVec 256))
(declare-fun certoraMemOffset_2 () (_ BitVec 256))
(declare-fun certoraMemOffset_0 () (_ BitVec 256))
(declare-fun OK_0_0_0_0_0_0_0 () Bool)
(declare-fun OK_0_0_0_0_1_0_0 () Bool)
(declare-fun OK_482_1021_0_0_1_0_0 () Bool)
(declare-fun OK_478_1021_0_0_1_0_0 () Bool)
(declare-fun OK_16_0_0_0_0_0_0 () Bool)
(declare-fun OK_3081_1020_0_0_1_0_0 () Bool)
(declare-fun OK_3080_1020_0_0_1_0_0 () Bool)

(assert (not (=> (and (= OK_0_0_0_0_0_0_0 (=> (and (and (bvult interL1020@1_5_5 (_ bv131072 256)) (bvugt interL1020@1_5_5 (_ bv65536 256)) (= L1020@1_5 (bvmul interL1020@1_5_5 (_ bv8589934592 256))))) (=> (= certoraTmp_1 caller_0) (=> (= certoraMaskedTmp_1 (bvand certoraTmp_1 (_ bv115792089237316195423570985007226406215939081747436879206741300988257197096960 256))) (=> (= certoraMaskedTmp_2 (= certoraMaskedTmp_1 (_ bv0 256))) (=> certoraMaskedTmp_2 (=> (= certoraTmp_2 (= certoraTmp_1 e.msg.sender_0)) (=> certoraTmp_2 (=> (= certoraTmp_3 callvalue_0) (=> (= certoraTmp_4 (= certoraTmp_3 e.msg.value_0)) (=> certoraTmp_4 (=> (= certoraTmp_5 address_0) (=> (= certoraMaskedTmp_3 (bvand certoraTmp_5 (_ bv115792089237316195423570985007226406215939081747436879206741300988257197096960 256))) (=> (= certoraMaskedTmp_4 (= certoraMaskedTmp_3 (_ bv0 256))) (=> certoraMaskedTmp_4 (=> (= certoraTmp_6 (= certoraTmp_5 e.msg.address_0)) (=> certoraTmp_6 (=> (= certoraTmp_7 origin_0) (=> (= certoraMaskedTmp_5 (bvand certoraTmp_7 (_ bv115792089237316195423570985007226406215939081747436879206741300988257197096960 256))) (=> (= certoraMaskedTmp_6 (= certoraMaskedTmp_5 (_ bv0 256))) (=> certoraMaskedTmp_6 (=> (= certoraTmp_8 (= certoraTmp_7 e.tx.origin_0)) (=> certoraTmp_8 (=> (= certoraTmp_9 blockNumber_0) (=> (= certoraTmp_10 (= certoraTmp_9 e.block.number_0)) (=> certoraTmp_10 (=> (= sizeCalldata_1 calldatasize_0) (=> (= tmpSizeCalldataLimitCheck_1 (bvugt sizeCalldata_1 (_ bv100 256))) (=> tmpSizeCalldataLimitCheck_1 (=> (= lastStorage_1 S_0) (=> (= certora_certoraAssumet1_1 f_0) (=> (= certoraTPos_1 (= certora_certoraAssumet1_1 (_ bv1229259732 256))) (=> (= certoraAssume_1 (not certoraTPos_1)) (=> certoraAssume_1 (=> (= certoraEqArgs_1 (= calldata@1_0 arg_0)) (=> certoraEqArgs_1 OK_0_0_0_0_1_0_0)))))))))))))))))))))))))))))))))))) (= OK_0_0_0_0_1_0_0 (=> (= lastHasThrown_2 false) (=> (= certoraTmp_11 caller@1_0) (=> (= certoraMaskedTmp_7 (bvand certoraTmp_11 (_ bv115792089237316195423570985007226406215939081747436879206741300988257197096960 256))) (=> (= certoraMaskedTmp_8 (= certoraMaskedTmp_7 (_ bv0 256))) (=> certoraMaskedTmp_8 (=> (= certoraTmp_12 (= certoraTmp_11 e.msg.sender_0)) (=> certoraTmp_12 (=> (= certoraTmp_13 callvalue@1_0) (=> (= certoraTmp_14 (= certoraTmp_13 e.msg.value_0)) (=> certoraTmp_14 (=> (= certoraTmp_15 address@1_0) (=> (= certoraMaskedTmp_9 (bvand certoraTmp_15 (_ bv115792089237316195423570985007226406215939081747436879206741300988257197096960 256))) (=> (= certoraMaskedTmp_10 (= certoraMaskedTmp_9 (_ bv0 256))) (=> certoraMaskedTmp_10 (=> (= certoraTmp_16 (= certoraTmp_15 e.msg.address_0)) (=> certoraTmp_16 (=> (= certoraTmp_17 origin_0) (=> (= certoraMaskedTmp_11 (bvand certoraTmp_17 (_ bv115792089237316195423570985007226406215939081747436879206741300988257197096960 256))) (=> (= certoraMaskedTmp_12 (= certoraMaskedTmp_11 (_ bv0 256))) (=> certoraMaskedTmp_12 (=> (= certoraTmp_18 (= certoraTmp_17 e.tx.origin_0)) (=> certoraTmp_18 (=> (= certoraTmp_19 blockNumber@1_0) (=> (= certoraTmp_20 (= certoraTmp_19 e.block.number_0)) (=> certoraTmp_20 (=> (= sizeCalldata_2 calldatasize@1_0) (=> (= tmpSizeCalldataLimitCheck_2 (bvugt sizeCalldata_2 (_ bv100 256))) (=> tmpSizeCalldataLimitCheck_2 (=> (= S_1 lastStorage_1) (=> (= certoraInput_1 (bvxor (bvxor (bvxor (bvxor (bvxor (bvxor (bvxor (bvxor (bvxor (bvxor (bvxor (bvxor (bvxor (bvxor (bvxor (bvxor (bvxor (bvxor (bvxor (bvxor (bvxor (bvxor (bvxor (bvxor (bvxor (bvxor (bvxor (bvxor (bvxor (bvxor (bvxor (bvxor (_ bv0 256) (bvmul ((_ zero_extend 248) (select calldata@1_0 (bvadd (_ bv0 256) (_ bv0 256)))) (_ bv452312848583266388373324160190187140051835877600158453279131187530910662656 256))) (bvmul ((_ zero_extend 248) (select calldata@1_0 (bvadd (_ bv0 256) (_ bv1 256)))) (_ bv1766847064778384329583297500742918515827483896875618958121606201292619776 256))) (bvmul ((_ zero_extend 248) (select calldata@1_0 (bvadd (_ bv0 256) (_ bv2 256)))) (_ bv6901746346790563787434755862277025452451108972170386555162524223799296 256))) (bvmul ((_ zero_extend 248) (select calldata@1_0 (bvadd (_ bv0 256) (_ bv3 256)))) (_ bv26959946667150639794667015087019630673637144422540572481103610249216 256))) (bvmul ((_ zero_extend 248) (select calldata@1_0 (bvadd (_ bv0 256) (_ bv4 256)))) (_ bv105312291668557186697918027683670432318895095400549111254310977536 256))) (bvmul ((_ zero_extend 248) (select calldata@1_0 (bvadd (_ bv0 256) (_ bv5 256)))) (_ bv411376139330301510538742295639337626245683966408394965837152256 256))) (bvmul ((_ zero_extend 248) (select calldata@1_0 (bvadd (_ bv0 256) (_ bv6 256)))) (_ bv1606938044258990275541962092341162602522202993782792835301376 256))) (bvmul ((_ zero_extend 248) (select calldata@1_0 (bvadd (_ bv0 256) (_ bv7 256)))) (_ bv6277101735386680763835789423207666416102355444464034512896 256))) (bvmul ((_ zero_extend 248) (select calldata@1_0 (bvadd (_ bv0 256) (_ bv8 256)))) (_ bv24519928653854221733733552434404946937899825954937634816 256))) (bvmul ((_ zero_extend 248) (select calldata@1_0 (bvadd (_ bv0 256) (_ bv9 256)))) (_ bv95780971304118053647396689196894323976171195136475136 256))) (bvmul ((_ zero_extend 248) (select calldata@1_0 (bvadd (_ bv0 256) (_ bv10 256)))) (_ bv374144419156711147060143317175368453031918731001856 256))) (bvmul ((_ zero_extend 248) (select calldata@1_0 (bvadd (_ bv0 256) (_ bv11 256)))) (_ bv1461501637330902918203684832716283019655932542976 256))) (bvmul ((_ zero_extend 248) (select calldata@1_0 (bvadd (_ bv0 256) (_ bv12 256)))) (_ bv5708990770823839524233143877797980545530986496 256))) (bvmul ((_ zero_extend 248) (select calldata@1_0 (bvadd (_ bv0 256) (_ bv13 256)))) (_ bv22300745198530623141535718272648361505980416 256))) (bvmul ((_ zero_extend 248) (select calldata@1_0 (bvadd (_ bv0 256) (_ bv14 256)))) (_ bv87112285931760246646623899502532662132736 256))) (bvmul ((_ zero_extend 248) (select calldata@1_0 (bvadd (_ bv0 256) (_ bv15 256)))) (_ bv340282366920938463463374607431768211456 256))) (bvmul ((_ zero_extend 248) (select calldata@1_0 (bvadd (_ bv0 256) (_ bv16 256)))) (_ bv1329227995784915872903807060280344576 256))) (bvmul ((_ zero_extend 248) (select calldata@1_0 (bvadd (_ bv0 256) (_ bv17 256)))) (_ bv5192296858534827628530496329220096 256))) (bvmul ((_ zero_extend 248) (select calldata@1_0 (bvadd (_ bv0 256) (_ bv18 256)))) (_ bv20282409603651670423947251286016 256))) (bvmul ((_ zero_extend 248) (select calldata@1_0 (bvadd (_ bv0 256) (_ bv19 256)))) (_ bv79228162514264337593543950336 256))) (bvmul ((_ zero_extend 248) (select calldata@1_0 (bvadd (_ bv0 256) (_ bv20 256)))) (_ bv309485009821345068724781056 256))) (bvmul ((_ zero_extend 248) (select calldata@1_0 (bvadd (_ bv0 256) (_ bv21 256)))) (_ bv1208925819614629174706176 256))) (bvmul ((_ zero_extend 248) (select calldata@1_0 (bvadd (_ bv0 256) (_ bv22 256)))) (_ bv4722366482869645213696 256))) (bvmul ((_ zero_extend 248) (select calldata@1_0 (bvadd (_ bv0 256) (_ bv23 256)))) (_ bv18446744073709551616 256))) (bvmul ((_ zero_extend 248) (select calldata@1_0 (bvadd (_ bv0 256) (_ bv24 256)))) (_ bv72057594037927936 256))) (bvmul ((_ zero_extend 248) (select calldata@1_0 (bvadd (_ bv0 256) (_ bv25 256)))) (_ bv281474976710656 256))) (bvmul ((_ zero_extend 248) (select calldata@1_0 (bvadd (_ bv0 256) (_ bv26 256)))) (_ bv1099511627776 256))) (bvmul ((_ zero_extend 248) (select calldata@1_0 (bvadd (_ bv0 256) (_ bv27 256)))) (_ bv4294967296 256))) (bvmul ((_ zero_extend 248) (select calldata@1_0 (bvadd (_ bv0 256) (_ bv28 256)))) (_ bv16777216 256))) (bvmul ((_ zero_extend 248) (select calldata@1_0 (bvadd (_ bv0 256) (_ bv29 256)))) (_ bv65536 256))) (bvmul ((_ zero_extend 248) (select calldata@1_0 (bvadd (_ bv0 256) (_ bv30 256)))) (_ bv256 256))) (bvmul ((_ zero_extend 248) (select calldata@1_0 (bvadd (_ bv0 256) (_ bv31 256)))) (_ bv1 256)))) (=> (= certoraInput_2 (bvudiv certoraInput_1 (_ bv26959946667150639794667015087019630673637144422540572481103610249216 256))) (=> (= certoraIsMethod_1 (= certoraInput_2 f_0)) (=> certoraIsMethod_1 (=> (= certoraFIsCandidate_1 (= f_0 (_ bv1229259732 256))) (=> certoraFIsCandidate_1 (=> (= thisAddressTmp_1 address@1_0) (=> (= thisAddressTmpBool_1 (= thisAddressTmp_1 (_ bv11259375 256))) (=> thisAddressTmpBool_1 (=> (= origS_1 lastStorage_1) (=> (= tmp@1_1 caller@1_0) (=> (= maskedTmp@1_1 (bvand tmp@1_1 (_ bv115792089237316195423570985007226406215939081747436879206741300988257197096960 256))) (=> (= maskedTmp@1_2 (= maskedTmp@1_1 (_ bv0 256))) (=> maskedTmp@1_2 (=> (= tmp@1_2 address@1_0) (=> (= maskedTmp@1_3 (bvand tmp@1_2 (_ bv115792089237316195423570985007226406215939081747436879206741300988257197096960 256))) (=> (= maskedTmp@1_4 (= maskedTmp@1_3 (_ bv0 256))) (=> maskedTmp@1_4 (=> (= M@1_1 (store M@1_0 (_ bv64 256) (_ bv128 256))) (=> (= L1022@1_1 (_ bv4 256)) (=> (= L1020@1_1 calldatasize@1_0) (=> (= L1021@1_1 (bvsub L1020@1_1 (_ bv4 256))) (=> (= L1020@1_2 (bvult L1021@1_1 (_ bv32 256))) (=> (= L1020@1_3 (not L1020@1_2)) (and (=> L1020@1_3 OK_482_1021_0_0_1_0_0) (=> (not L1020@1_3) OK_478_1021_0_0_1_0_0)))))))))))))))))))))))))))))))))))))))))))))))))))))))) (= OK_478_1021_0_0_1_0_0 (=> (= S_2 origS_1) (=> (= lastReverted_1 true) (=> (and true (and (and (and (and (and (and (and (and (and (and (and (and (and (= lastHasThrown_4 lastHasThrown_2) (= S_4 S_2)) (= M@1_4 M@1_1)) (= L1022@1_7 L1022@1_1)) (= (not (= L1020@1_7 (_ bv0 256))) L1020@1_3)) (= L1021@1_10 L1021@1_1)) (= lastReverted_5 lastReverted_1)) (= sizeCalldata@1_2 sizeCalldata@1_0)) (= tmpSizeCalldataLimitCheck@1_2 tmpSizeCalldataLimitCheck@1_0)) (= boundaryCalldata@1_2 boundaryCalldata@1_0)) (= L1019@1_9 L1019@1_0)) (= L0@1_3 L0@1_0)) (= retVal@1_2 retVal@1_0)) (= certoraMemOffset_2 certoraMemOffset_0))) OK_16_0_0_0_0_0_0)))) (= OK_482_1021_0_0_1_0_0 (=> (= sizeCalldata@1_1 calldatasize@1_0) (=> (= tmpSizeCalldataLimitCheck@1_1 (bvult sizeCalldata@1_1 (_ bv1000 256))) (=> tmpSizeCalldataLimitCheck@1_1 (=> (= boundaryCalldata@1_1 (bvult (_ bv4 256) sizeCalldata@1_1)) (=> boundaryCalldata@1_1 (=> (= L1019@1_1 (bvxor (bvxor (bvxor (bvxor (bvxor (bvxor (bvxor (bvxor (bvxor (bvxor (bvxor (bvxor (bvxor (bvxor (bvxor (bvxor (bvxor (bvxor (bvxor (bvxor (bvxor (bvxor (bvxor (bvxor (bvxor (bvxor (bvxor (bvxor (bvxor (bvxor (bvxor (bvxor (_ bv0 256) (bvmul ((_ zero_extend 248) (select calldata@1_0 (bvadd (_ bv4 256) (_ bv0 256)))) (_ bv452312848583266388373324160190187140051835877600158453279131187530910662656 256))) (bvmul ((_ zero_extend 248) (select calldata@1_0 (bvadd (_ bv4 256) (_ bv1 256)))) (_ bv1766847064778384329583297500742918515827483896875618958121606201292619776 256))) (bvmul ((_ zero_extend 248) (select calldata@1_0 (bvadd (_ bv4 256) (_ bv2 256)))) (_ bv6901746346790563787434755862277025452451108972170386555162524223799296 256))) (bvmul ((_ zero_extend 248) (select calldata@1_0 (bvadd (_ bv4 256) (_ bv3 256)))) (_ bv26959946667150639794667015087019630673637144422540572481103610249216 256))) (bvmul ((_ zero_extend 248) (select calldata@1_0 (bvadd (_ bv4 256) (_ bv4 256)))) (_ bv105312291668557186697918027683670432318895095400549111254310977536 256))) (bvmul ((_ zero_extend 248) (select calldata@1_0 (bvadd (_ bv4 256) (_ bv5 256)))) (_ bv411376139330301510538742295639337626245683966408394965837152256 256))) (bvmul ((_ zero_extend 248) (select calldata@1_0 (bvadd (_ bv4 256) (_ bv6 256)))) (_ bv1606938044258990275541962092341162602522202993782792835301376 256))) (bvmul ((_ zero_extend 248) (select calldata@1_0 (bvadd (_ bv4 256) (_ bv7 256)))) (_ bv6277101735386680763835789423207666416102355444464034512896 256))) (bvmul ((_ zero_extend 248) (select calldata@1_0 (bvadd (_ bv4 256) (_ bv8 256)))) (_ bv24519928653854221733733552434404946937899825954937634816 256))) (bvmul ((_ zero_extend 248) (select calldata@1_0 (bvadd (_ bv4 256) (_ bv9 256)))) (_ bv95780971304118053647396689196894323976171195136475136 256))) (bvmul ((_ zero_extend 248) (select calldata@1_0 (bvadd (_ bv4 256) (_ bv10 256)))) (_ bv374144419156711147060143317175368453031918731001856 256))) (bvmul ((_ zero_extend 248) (select calldata@1_0 (bvadd (_ bv4 256) (_ bv11 256)))) (_ bv1461501637330902918203684832716283019655932542976 256))) (bvmul ((_ zero_extend 248) (select calldata@1_0 (bvadd (_ bv4 256) (_ bv12 256)))) (_ bv5708990770823839524233143877797980545530986496 256))) (bvmul ((_ zero_extend 248) (select calldata@1_0 (bvadd (_ bv4 256) (_ bv13 256)))) (_ bv22300745198530623141535718272648361505980416 256))) (bvmul ((_ zero_extend 248) (select calldata@1_0 (bvadd (_ bv4 256) (_ bv14 256)))) (_ bv87112285931760246646623899502532662132736 256))) (bvmul ((_ zero_extend 248) (select calldata@1_0 (bvadd (_ bv4 256) (_ bv15 256)))) (_ bv340282366920938463463374607431768211456 256))) (bvmul ((_ zero_extend 248) (select calldata@1_0 (bvadd (_ bv4 256) (_ bv16 256)))) (_ bv1329227995784915872903807060280344576 256))) (bvmul ((_ zero_extend 248) (select calldata@1_0 (bvadd (_ bv4 256) (_ bv17 256)))) (_ bv5192296858534827628530496329220096 256))) (bvmul ((_ zero_extend 248) (select calldata@1_0 (bvadd (_ bv4 256) (_ bv18 256)))) (_ bv20282409603651670423947251286016 256))) (bvmul ((_ zero_extend 248) (select calldata@1_0 (bvadd (_ bv4 256) (_ bv19 256)))) (_ bv79228162514264337593543950336 256))) (bvmul ((_ zero_extend 248) (select calldata@1_0 (bvadd (_ bv4 256) (_ bv20 256)))) (_ bv309485009821345068724781056 256))) (bvmul ((_ zero_extend 248) (select calldata@1_0 (bvadd (_ bv4 256) (_ bv21 256)))) (_ bv1208925819614629174706176 256))) (bvmul ((_ zero_extend 248) (select calldata@1_0 (bvadd (_ bv4 256) (_ bv22 256)))) (_ bv4722366482869645213696 256))) (bvmul ((_ zero_extend 248) (select calldata@1_0 (bvadd (_ bv4 256) (_ bv23 256)))) (_ bv18446744073709551616 256))) (bvmul ((_ zero_extend 248) (select calldata@1_0 (bvadd (_ bv4 256) (_ bv24 256)))) (_ bv72057594037927936 256))) (bvmul ((_ zero_extend 248) (select calldata@1_0 (bvadd (_ bv4 256) (_ bv25 256)))) (_ bv281474976710656 256))) (bvmul ((_ zero_extend 248) (select calldata@1_0 (bvadd (_ bv4 256) (_ bv26 256)))) (_ bv1099511627776 256))) (bvmul ((_ zero_extend 248) (select calldata@1_0 (bvadd (_ bv4 256) (_ bv27 256)))) (_ bv4294967296 256))) (bvmul ((_ zero_extend 248) (select calldata@1_0 (bvadd (_ bv4 256) (_ bv28 256)))) (_ bv16777216 256))) (bvmul ((_ zero_extend 248) (select calldata@1_0 (bvadd (_ bv4 256) (_ bv29 256)))) (_ bv65536 256))) (bvmul ((_ zero_extend 248) (select calldata@1_0 (bvadd (_ bv4 256) (_ bv30 256)))) (_ bv256 256))) (bvmul ((_ zero_extend 248) (select calldata@1_0 (bvadd (_ bv4 256) (_ bv31 256)))) (_ bv1 256)))) (=> (= L1022@1_2 L1019@1_1) (=> (= L1021@1_3 (_ bv3 256)) (=> (= L1020@1_4 L1022@1_2) (=> (= L1019@1_2 (select (select S_1 address@1_0) (_ bv3 256))) (=> (= L1019@1_3 (bvult L1022@1_2 L1019@1_2)) (=> (= L1019@1_4 (not L1019@1_3)) (=> (= L1019@1_5 (not L1019@1_4)) (and (=> L1019@1_5 OK_3081_1020_0_0_1_0_0) (=> (not L1019@1_5) OK_3080_1020_0_0_1_0_0)))))))))))))))) (= OK_3080_1020_0_0_1_0_0 (=> (= S_3 origS_1) (=> (= lastHasThrown_3 true) (=> (= lastReverted_3 true) (=> (and true (and (and (and (and (and (and (and (and (and (and (and (and (and (= lastHasThrown_4 lastHasThrown_3) (= S_4 S_3)) (= M@1_4 M@1_1)) (= L1022@1_7 L1022@1_2)) (= L1020@1_7 L1020@1_4)) (= L1021@1_10 L1021@1_3)) (= lastReverted_5 lastReverted_3)) (= sizeCalldata@1_2 sizeCalldata@1_1)) (= tmpSizeCalldataLimitCheck@1_2 tmpSizeCalldataLimitCheck@1_1)) (= boundaryCalldata@1_2 boundaryCalldata@1_1)) (= (not (= L1019@1_9 (_ bv0 256))) L1019@1_5)) (= L0@1_3 L0@1_0)) (= retVal@1_2 retVal@1_0)) (= certoraMemOffset_2 certoraMemOffset_0))) OK_16_0_0_0_0_0_0))))) (= OK_3081_1020_0_0_1_0_0 (=> (= L0@1_1 L1020@1_4) (=> (= M@1_2 (store M@1_1 (_ bv0 256) (_ bv3 256))) (=> (= L1021@1_4 (bvadd L1020@1_5 L0@1_1)) (=> (= L1021@1_5 (select (select S_1 address@1_0) L1021@1_4)) (=> (= L1022@1_3 (bvudiv L1021@1_5 (_ bv1 256))) (=> (= L1022@1_4 (bvand (_ bv1461501637330902918203684832716283019655932542975 256) L1022@1_3)) (=> (= L1019@1_6 L1022@1_4) (=> (= L1019@1_7 (bvand (_ bv1461501637330902918203684832716283019655932542975 256) L1019@1_6)) (=> (= L1019@1_8 (bvand (_ bv1461501637330902918203684832716283019655932542975 256) L1019@1_7)) (=> (= M@1_3 (store M@1_2 (_ bv128 256) L1019@1_8)) (=> (= L1020@1_6 (_ bv160 256)) (=> (= L0@1_2 (_ bv32 256)) (=> (= L1021@1_9 (_ bv128 256)) (=> (= L1022@1_6 (_ bv32 256)) (=> (= retVal@1_1 (select M@1_3 (_ bv128 256))) (=> (= lastReverted_4 false) (=> (= certoraMemOffset_1 (_ bv128 256)) (=> (and true (and (and (and (and (and (and (and (and (and (and (and (and (and (= lastHasThrown_4 lastHasThrown_2) (= S_4 S_1)) (= M@1_4 M@1_3)) (= L1022@1_7 L1022@1_6)) (= L1020@1_7 L1020@1_6)) (= L1021@1_10 L1021@1_9)) (= lastReverted_5 lastReverted_4)) (= sizeCalldata@1_2 sizeCalldata@1_1)) (= tmpSizeCalldataLimitCheck@1_2 tmpSizeCalldataLimitCheck@1_1)) (= boundaryCalldata@1_2 boundaryCalldata@1_1)) (= L1019@1_9 L1019@1_8)) (= L0@1_3 L0@1_2)) (= retVal@1_2 retVal@1_1)) (= certoraMemOffset_2 certoraMemOffset_1))) OK_16_0_0_0_0_0_0))))))))))))))))))) (= OK_16_0_0_0_0_0_0 (=> (= certora_certoraAssert_0t_1 lastHasThrown_4) (=> (= certoraAssert_0_1 (not certora_certoraAssert_0t_1)) (and certoraAssert_0_1 true))))) OK_0_0_0_0_0_0_0)))
(check-sat)
(get-model)
